\ This file has been generated by DOcplex
\ ENCODING=ISO-8859-1
\Problem name: CPLEX

Minimize
 obj: - 4 b_0 + 19 b_1 + 6 b_2 + 5 b_3 - 4 b_4 + 12 b_5 + 19 b_6 - 5 f_2 + 16
Subject To
 lin_eq_0: - 7 b_1 - 4 b_2 - 2 b_5 <= -9
 lin_eq_1: 20 b_4 - 9 b_6 + 17 f_2 <= 127
 lin_eq_2: 16 b_4 - 6 f_1 <= 111
 lin_eq_3: 5 b_0 - 10 b_5 + 14 f_2 <= 107
 lin_eq_4: b_1 - 7 b_5 - 7 f_1 <= -265
 lin_eq_5: 16 b_1 + 2 b_4 + 4 b_6 <= 20

Bounds
 0 <= b_0 <= 1
 0 <= b_1 <= 1
 0 <= b_2 <= 1
 0 <= b_3 <= 1
 0 <= b_4 <= 1
 0 <= b_5 <= 1
 0 <= b_6 <= 1
 4 <= f_0 <= 67
 3 <= f_1 <= 52
 2 <= f_2 <= 78

Binaries
 b_0 b_1 b_2 b_3 b_4 b_5 b_6
End
